letting n =  10
letting blocks =  [[1, 3], [1, 7], [1, 8], [2, 10], [3, 1], [3, 2], [3, 4], [3, 5], [3, 8], [3, 9], [4, 3], [4, 5], [4, 9], [4, 10], [5, 3], [5, 4], [6, 2], [6, 10], [7, 4], [7, 5], [7, 6], [7, 7], [7, 8], [7, 9], [8, 1], [8, 2], [8, 4], [8, 5], [8, 10], [9, 2], [9, 6], [9, 7], [9, 9], [9, 10], [10, 7], [10, 9]]
